# Solution for model micodag
# Objective value = 8.2342795003299614e+00
s_0_1 0
s_1_0 0
s_0_2 0
s_2_0 0
s_1_2 7.5955297653823717e-01
s_2_1 0
s_2_3 0
s_3_2 0
s_2_5 0
s_5_2 7.3877402194999808e-01
s_3_4 0
s_4_3 0
s_3_5 0
s_5_3 7.9859939926743539e-01
s_3_6 0
s_6_3 5.5128734151064629e-01
s_4_5 0
s_5_4 0
s_4_6 0
s_6_4 5.6128320568765933e-01
s_4_7 0
s_7_4 3.4523588678713635e-01
s_5_6 0
s_6_5 0
s_5_7 0
s_7_5 5.4296954103646433e-01
s_5_8 0
s_8_5 3.3156215722454974e-01
s_6_7 0
s_7_6 0
s_6_8 0
s_8_6 6.7263654096366077e-01
s_7_8 0
s_8_7 2.7065728017231239e-01
s_0_0 2.0049275480557420e+00
s_1_1 1.5287656345000817e+00
s_2_2 1.1240562239655942e+00
s_3_3 9.3457629815928822e-01
s_4_4 0.679362613070785
s_5_5 1.8842870016603208e+00
s_6_6 9.2337322737026417e-01
s_7_7 1.0030697274826590e+00
s_8_8 9.5214829151224345e-01
Gamma_0_0 1.4159546419485838e+00
Gamma_0_1 0
Gamma_0_2 0
Gamma_0_3 0
Gamma_0_4 0
Gamma_0_5 0
Gamma_0_6 0
Gamma_0_7 0
Gamma_0_8 0
Gamma_1_0 0
Gamma_1_1 1.2364326243269714e+00
Gamma_1_2 8.7152336545742548e-01
Gamma_1_3 0
Gamma_1_4 0
Gamma_1_5 0
Gamma_1_6 0
Gamma_1_7 0
Gamma_1_8 0
Gamma_2_0 0
Gamma_2_1 0
Gamma_2_2 1.0602151781433777e+00
Gamma_2_3 0
Gamma_2_4 0
Gamma_2_5 0
Gamma_2_6 0
Gamma_2_7 0
Gamma_2_8 0
Gamma_3_0 0
Gamma_3_1 0
Gamma_3_2 0
Gamma_3_3 9.6673486445834167e-01
Gamma_3_4 0
Gamma_3_5 0
Gamma_3_6 0
Gamma_3_7 0
Gamma_3_8 0
Gamma_4_0 0
Gamma_4_1 0
Gamma_4_2 0
Gamma_4_3 0
Gamma_4_4 8.2423456192444711e-01
Gamma_4_5 0
Gamma_4_6 0
Gamma_4_7 0
Gamma_4_8 0
Gamma_5_0 0
Gamma_5_1 0
Gamma_5_2 -8.5951964605237408e-01
Gamma_5_3 -8.9364388839595144e-01
Gamma_5_4 0
Gamma_5_5 1.3726933385357127e+00
Gamma_5_6 0
Gamma_5_7 0
Gamma_5_8 0
Gamma_6_0 0
Gamma_6_1 0
Gamma_6_2 0
Gamma_6_3 -0.742487266901357
Gamma_6_4 7.4918836462378380e-01
Gamma_6_5 0
Gamma_6_6 9.6092311210120485e-01
Gamma_6_7 0
Gamma_6_8 0
Gamma_7_0 0
Gamma_7_1 0
Gamma_7_2 0
Gamma_7_3 0
Gamma_7_4 5.8756777208006983e-01
Gamma_7_5 7.3686466941797690e-01
Gamma_7_6 0
Gamma_7_7 1.0015336876424372e+00
Gamma_7_8 0
Gamma_8_0 0
Gamma_8_1 0
Gamma_8_2 0
Gamma_8_3 0
Gamma_8_4 0
Gamma_8_5 -5.7581434267005716e-01
Gamma_8_6 8.2014421961241757e-01
Gamma_8_7 5.2024732596363532e-01
Gamma_8_8 9.7578086244414741e-01
psi_0 0
psi_1 0
psi_2 3
psi_3 3
psi_4 2
psi_5 2
psi_6 1
psi_7 1
psi_8 0
g_0_0 0
g_0_1 0
g_0_2 0
g_0_3 0
g_0_4 0
g_0_5 0
g_0_6 0
g_0_7 0
g_0_8 0
g_1_0 0
g_1_1 0
g_1_2 1
g_1_3 0
g_1_4 0
g_1_5 0
g_1_6 0
g_1_7 0
g_1_8 0
g_2_0 0
g_2_1 0
g_2_2 0
g_2_3 0
g_2_4 0
g_2_5 0
g_2_6 0
g_2_7 0
g_2_8 0
g_3_0 0
g_3_1 0
g_3_2 0
g_3_3 0
g_3_4 0
g_3_5 0
g_3_6 0
g_3_7 0
g_3_8 0
g_4_0 0
g_4_1 0
g_4_2 0
g_4_3 0
g_4_4 0
g_4_5 0
g_4_6 0
g_4_7 0
g_4_8 0
g_5_0 0
g_5_1 0
g_5_2 1
g_5_3 1
g_5_4 0
g_5_5 0
g_5_6 0
g_5_7 0
g_5_8 0
g_6_0 0
g_6_1 0
g_6_2 0
g_6_3 1
g_6_4 1
g_6_5 0
g_6_6 0
g_6_7 0
g_6_8 0
g_7_0 0
g_7_1 0
g_7_2 0
g_7_3 0
g_7_4 1
g_7_5 1
g_7_6 0
g_7_7 0
g_7_8 0
g_8_0 0
g_8_1 0
g_8_2 0
g_8_3 0
g_8_4 0
g_8_5 1
g_8_6 1
g_8_7 1
g_8_8 0
T_0 -6.9560792447258279e-01
T_1 -4.2446063494983832e-01
T_2 -1.1694377154218216e-01
T_3 6.7662009449023230e-02
T_4 3.8660025410337084e-01
T_5 -0.633549500889913
T_6 7.9721762864039647e-02
T_7 -3.0650254893487272e-03
T_8 4.9034487926192583e-02
